; PUSH cw_3 SWAP2 CALLER SWAP2 PUSH cw_2 SWAP2 => PUSH cw_2 CALLER SWAP2 PUSH cw_3 SWAP4
(set-option :produce-proofs true)
; 
(set-info :status unknown)
(declare-fun storage_t ((_ BitVec 256) (_ BitVec 256) (_ BitVec 256) (_ BitVec 256) (_ BitVec 256) Int (_ BitVec 256)) (_ BitVec 256))
(declare-fun w_2 () (_ BitVec 256))
(declare-fun w_3 () (_ BitVec 256))
(declare-fun storage_s ((_ BitVec 256) (_ BitVec 256) (_ BitVec 256) (_ BitVec 256) (_ BitVec 256) Int (_ BitVec 256)) (_ BitVec 256))
(declare-fun exc_halt_t (Int) Bool)
(declare-fun exc_halt_s (Int) Bool)
(declare-fun sc_t (Int) (_ BitVec 6))
(declare-fun stack_t ((_ BitVec 256) (_ BitVec 256) (_ BitVec 256) (_ BitVec 256) (_ BitVec 256) Int (_ BitVec 6)) (_ BitVec 256))
(declare-fun stack_s ((_ BitVec 256) (_ BitVec 256) (_ BitVec 256) (_ BitVec 256) (_ BitVec 256) Int (_ BitVec 6)) (_ BitVec 256))
(declare-fun sc_s (Int) (_ BitVec 6))
(declare-fun used_gas_t ((_ BitVec 256) (_ BitVec 256) (_ BitVec 256) (_ BitVec 256) (_ BitVec 256) Int) Int)
(declare-fun used_gas_s ((_ BitVec 256) (_ BitVec 256) (_ BitVec 256) (_ BitVec 256) (_ BitVec 256) Int) Int)
(assert
 (exists ((x_0 (_ BitVec 256)) (x_1 (_ BitVec 256)) (x_CALLER (_ BitVec 256)) )(let (($x8020 (forall ((w (_ BitVec 256)) )(let ((?x9888 (storage_t x_0 x_1 w_3 w_2 x_CALLER 5 w)))
 (let ((?x1623 (storage_s x_0 x_1 w_3 w_2 x_CALLER 6 w)))
 (= ?x1623 ?x9888))))
 ))
 (let (($x1885 (exc_halt_t 5)))
 (let (($x772 (exc_halt_s 6)))
 (let (($x11108 (= $x772 $x1885)))
 (let (($x7137 (forall ((n (_ BitVec 6)) )(let ((?x7145 (stack_t x_0 x_1 w_3 w_2 x_CALLER 5 n)))
 (let ((?x4836 (stack_s x_0 x_1 w_3 w_2 x_CALLER 6 n)))
 (let (($x1671 (= ?x4836 ?x7145)))
 (or $x1671 (bvsle (sc_t 5) n))))))
 ))
 (let ((?x8961 (sc_t 5)))
 (let ((?x926 (sc_s 6)))
 (let (($x5889 (= ?x926 ?x8961)))
 (let ((?x2280 (used_gas_t x_0 x_1 w_3 w_2 x_CALLER 0)))
 (let ((?x6852 (used_gas_s x_0 x_1 w_3 w_2 x_CALLER 0)))
 (let (($x4270 (= ?x6852 ?x2280)))
 (let (($x6848 (forall ((w (_ BitVec 256)) )(let ((?x596 (storage_t x_0 x_1 w_3 w_2 x_CALLER 0 w)))
 (let ((?x10297 (storage_s x_0 x_1 w_3 w_2 x_CALLER 0 w)))
 (= ?x10297 ?x596))))
 ))
 (let (($x56 (exc_halt_t 0)))
 (let (($x57 (exc_halt_s 0)))
 (let (($x58 (= $x57 $x56)))
 (let (($x7006 (forall ((n (_ BitVec 6)) )(let ((?x63 (sc_t 0)))
 (let (($x10511 (bvsle ?x63 n)))
 (let ((?x2293 (stack_t x_0 x_1 w_3 w_2 x_CALLER 0 n)))
 (let ((?x959 (stack_s x_0 x_1 w_3 w_2 x_CALLER 0 n)))
 (let (($x1769 (= ?x959 ?x2293)))
 (or $x1769 $x10511)))))))
 ))
 (let ((?x63 (sc_t 0)))
 (let ((?x72 (sc_s 0)))
 (let (($x73 (= ?x72 ?x63)))
 (let (($x4492 (= $x1885 (or (exc_halt_t 4) (not (bvsle (_ bv0 6) (bvadd (_ bv59 6) (sc_t 4))))))))
 (let (($x7806 (forall ((w (_ BitVec 256)) )(let ((?x5115 (storage_t x_0 x_1 w_3 w_2 x_CALLER 4 w)))
 (let ((?x9888 (storage_t x_0 x_1 w_3 w_2 x_CALLER 5 w)))
 (= ?x9888 ?x5115))))
 ))
 (let (($x10483 (forall ((n (_ BitVec 6)) )(let ((?x9979 (stack_t x_0 x_1 w_3 w_2 x_CALLER 4 n)))
 (let ((?x7145 (stack_t x_0 x_1 w_3 w_2 x_CALLER 5 n)))
 (or (bvsle (bvadd (_ bv59 6) (sc_t 4)) n) (= ?x7145 ?x9979)))))
 ))
 (let (($x3422 (= (used_gas_t x_0 x_1 w_3 w_2 x_CALLER 5) (+ 3 (used_gas_t x_0 x_1 w_3 w_2 x_CALLER 4)))))
 (let (($x4726 (= (stack_t x_0 x_1 w_3 w_2 x_CALLER 5 (bvadd (_ bv62 6) ?x8961)) (stack_t x_0 x_1 w_3 w_2 x_CALLER 4 (bvadd (_ bv62 6) (sc_t 4))))))
 (let (($x5202 (= (stack_t x_0 x_1 w_3 w_2 x_CALLER 5 (bvadd (_ bv61 6) ?x8961)) (stack_t x_0 x_1 w_3 w_2 x_CALLER 4 (bvadd (_ bv61 6) (sc_t 4))))))
 (let (($x7455 (= (stack_t x_0 x_1 w_3 w_2 x_CALLER 5 (bvadd (_ bv60 6) ?x8961)) (stack_t x_0 x_1 w_3 w_2 x_CALLER 4 (bvadd (_ bv60 6) (sc_t 4))))))
 (let (($x2373 (= (stack_t x_0 x_1 w_3 w_2 x_CALLER 5 (bvadd (_ bv59 6) ?x8961)) (stack_t x_0 x_1 w_3 w_2 x_CALLER 4 (bvadd (_ bv63 6) (sc_t 4))))))
 (let (($x7470 (= (stack_t x_0 x_1 w_3 w_2 x_CALLER 5 (bvadd (_ bv63 6) ?x8961)) (stack_t x_0 x_1 w_3 w_2 x_CALLER 4 (bvadd (_ bv59 6) (sc_t 4))))))
 (let (($x6783 (exc_halt_t 3)))
 (let (($x6372 (or $x6783 (not (= ((_ extract 6 6) (bvadd (_ bv1 7) (concat (_ bv0 1) (sc_t 3)))) (_ bv0 1))))))
 (let (($x7854 (exc_halt_t 4)))
 (let (($x856 (forall ((w (_ BitVec 256)) )(let ((?x3946 (storage_t x_0 x_1 w_3 w_2 x_CALLER 3 w)))
 (let ((?x5115 (storage_t x_0 x_1 w_3 w_2 x_CALLER 4 w)))
 (= ?x5115 ?x3946))))
 ))
 (let (($x922 (forall ((n (_ BitVec 6)) )(let ((?x9580 (stack_t x_0 x_1 w_3 w_2 x_CALLER 3 n)))
 (let ((?x9979 (stack_t x_0 x_1 w_3 w_2 x_CALLER 4 n)))
 (or (bvsle (sc_t 3) n) (= ?x9979 ?x9580)))))
 ))
 (let ((?x586 (used_gas_t x_0 x_1 w_3 w_2 x_CALLER 4)))
 (let (($x4975 (= $x6783 (or (exc_halt_t 2) (not (bvsle (_ bv0 6) (bvadd (_ bv61 6) (sc_t 2))))))))
 (let (($x2862 (forall ((w (_ BitVec 256)) )(let ((?x10519 (storage_t x_0 x_1 w_3 w_2 x_CALLER 2 w)))
 (let ((?x3946 (storage_t x_0 x_1 w_3 w_2 x_CALLER 3 w)))
 (= ?x3946 ?x10519))))
 ))
 (let (($x7554 (forall ((n (_ BitVec 6)) )(let ((?x8948 (stack_t x_0 x_1 w_3 w_2 x_CALLER 2 n)))
 (let ((?x9580 (stack_t x_0 x_1 w_3 w_2 x_CALLER 3 n)))
 (or (= ?x9580 ?x8948) (bvsle (bvadd (_ bv61 6) (sc_t 2)) n)))))
 ))
 (let ((?x11410 (used_gas_t x_0 x_1 w_3 w_2 x_CALLER 3)))
 (let (($x5507 (= (stack_t x_0 x_1 w_3 w_2 x_CALLER 3 (bvadd (_ bv62 6) (sc_t 3))) (stack_t x_0 x_1 w_3 w_2 x_CALLER 2 (bvadd (_ bv62 6) (sc_t 2))))))
 (let (($x1734 (= (stack_t x_0 x_1 w_3 w_2 x_CALLER 3 (bvadd (_ bv61 6) (sc_t 3))) (stack_t x_0 x_1 w_3 w_2 x_CALLER 2 (bvadd (_ bv63 6) (sc_t 2))))))
 (let (($x1101 (= (stack_t x_0 x_1 w_3 w_2 x_CALLER 3 (bvadd (_ bv63 6) (sc_t 3))) (stack_t x_0 x_1 w_3 w_2 x_CALLER 2 (bvadd (_ bv61 6) (sc_t 2))))))
 (let (($x8377 (exc_halt_t 1)))
 (let (($x10124 (or $x8377 (not (= ((_ extract 6 6) (bvadd (_ bv1 7) (concat (_ bv0 1) (sc_t 1)))) (_ bv0 1))))))
 (let (($x2163 (exc_halt_t 2)))
 (let (($x608 (forall ((w (_ BitVec 256)) )(let ((?x8922 (storage_t x_0 x_1 w_3 w_2 x_CALLER 1 w)))
 (let ((?x10519 (storage_t x_0 x_1 w_3 w_2 x_CALLER 2 w)))
 (= ?x10519 ?x8922))))
 ))
 (let (($x1165 (forall ((n (_ BitVec 6)) )(let ((?x8535 (stack_t x_0 x_1 w_3 w_2 x_CALLER 1 n)))
 (let ((?x8948 (stack_t x_0 x_1 w_3 w_2 x_CALLER 2 n)))
 (or (bvsle (sc_t 1) n) (= ?x8948 ?x8535)))))
 ))
 (let ((?x3172 (used_gas_t x_0 x_1 w_3 w_2 x_CALLER 2)))
 (let (($x428 (= $x8377 (or $x56 (not (= ((_ extract 6 6) (bvadd (_ bv1 7) (concat (_ bv0 1) ?x63))) (_ bv0 1)))))))
 (let (($x10478 (forall ((w (_ BitVec 256)) )(let ((?x596 (storage_t x_0 x_1 w_3 w_2 x_CALLER 0 w)))
 (let ((?x8922 (storage_t x_0 x_1 w_3 w_2 x_CALLER 1 w)))
 (= ?x8922 ?x596))))
 ))
 (let (($x7100 (forall ((n (_ BitVec 6)) )(let ((?x63 (sc_t 0)))
 (let (($x10511 (bvsle ?x63 n)))
 (let ((?x2293 (stack_t x_0 x_1 w_3 w_2 x_CALLER 0 n)))
 (let ((?x8535 (stack_t x_0 x_1 w_3 w_2 x_CALLER 1 n)))
 (or (= ?x8535 ?x2293) $x10511))))))
 ))
 (let (($x2870 (= $x772 (or (not (bvsle (_ bv0 6) (bvadd (_ bv61 6) (sc_s 5)))) (exc_halt_s 5)))))
 (let (($x9758 (forall ((w (_ BitVec 256)) )(let ((?x10610 (storage_s x_0 x_1 w_3 w_2 x_CALLER 5 w)))
 (let ((?x1623 (storage_s x_0 x_1 w_3 w_2 x_CALLER 6 w)))
 (= ?x1623 ?x10610))))
 ))
 (let (($x969 (forall ((n (_ BitVec 6)) )(let ((?x615 (stack_s x_0 x_1 w_3 w_2 x_CALLER 5 n)))
 (let ((?x4836 (stack_s x_0 x_1 w_3 w_2 x_CALLER 6 n)))
 (or (= ?x4836 ?x615) (bvsle (bvadd (_ bv61 6) (sc_s 5)) n)))))
 ))
 (let (($x9441 (= (used_gas_s x_0 x_1 w_3 w_2 x_CALLER 6) (+ 3 (used_gas_s x_0 x_1 w_3 w_2 x_CALLER 5)))))
 (let (($x1512 (= (stack_s x_0 x_1 w_3 w_2 x_CALLER 6 (bvadd (_ bv62 6) ?x926)) (stack_s x_0 x_1 w_3 w_2 x_CALLER 5 (bvadd (_ bv62 6) (sc_s 5))))))
 (let (($x8195 (= (stack_s x_0 x_1 w_3 w_2 x_CALLER 6 (bvadd (_ bv61 6) ?x926)) (stack_s x_0 x_1 w_3 w_2 x_CALLER 5 (bvadd (_ bv63 6) (sc_s 5))))))
 (let (($x7379 (= (stack_s x_0 x_1 w_3 w_2 x_CALLER 6 (bvadd (_ bv63 6) ?x926)) (stack_s x_0 x_1 w_3 w_2 x_CALLER 5 (bvadd (_ bv61 6) (sc_s 5))))))
 (let (($x7172 (exc_halt_s 4)))
 (let (($x6078 (or $x7172 (not (= ((_ extract 6 6) (bvadd (_ bv1 7) (concat (_ bv0 1) (sc_s 4)))) (_ bv0 1))))))
 (let (($x11317 (exc_halt_s 5)))
 (let (($x7209 (forall ((w (_ BitVec 256)) )(let ((?x3065 (storage_s x_0 x_1 w_3 w_2 x_CALLER 4 w)))
 (let ((?x10610 (storage_s x_0 x_1 w_3 w_2 x_CALLER 5 w)))
 (= ?x10610 ?x3065))))
 ))
 (let (($x3845 (forall ((n (_ BitVec 6)) )(let ((?x974 (stack_s x_0 x_1 w_3 w_2 x_CALLER 4 n)))
 (let ((?x615 (stack_s x_0 x_1 w_3 w_2 x_CALLER 5 n)))
 (or (bvsle (sc_s 4) n) (= ?x615 ?x974)))))
 ))
 (let ((?x8891 (used_gas_s x_0 x_1 w_3 w_2 x_CALLER 5)))
 (let (($x6316 (= $x7172 (or (exc_halt_s 3) (not (bvsle (_ bv0 6) (bvadd (_ bv61 6) (sc_s 3))))))))
 (let (($x5807 (forall ((w (_ BitVec 256)) )(let ((?x5481 (storage_s x_0 x_1 w_3 w_2 x_CALLER 3 w)))
 (let ((?x3065 (storage_s x_0 x_1 w_3 w_2 x_CALLER 4 w)))
 (= ?x3065 ?x5481))))
 ))
 (let (($x8708 (forall ((n (_ BitVec 6)) )(let ((?x1632 (stack_s x_0 x_1 w_3 w_2 x_CALLER 3 n)))
 (let ((?x974 (stack_s x_0 x_1 w_3 w_2 x_CALLER 4 n)))
 (or (= ?x974 ?x1632) (bvsle (bvadd (_ bv61 6) (sc_s 3)) n)))))
 ))
 (let ((?x6501 (used_gas_s x_0 x_1 w_3 w_2 x_CALLER 4)))
 (let (($x9714 (= (stack_s x_0 x_1 w_3 w_2 x_CALLER 4 (bvadd (_ bv62 6) (sc_s 4))) (stack_s x_0 x_1 w_3 w_2 x_CALLER 3 (bvadd (_ bv62 6) (sc_s 3))))))
 (let (($x2703 (= (stack_s x_0 x_1 w_3 w_2 x_CALLER 4 (bvadd (_ bv61 6) (sc_s 4))) (stack_s x_0 x_1 w_3 w_2 x_CALLER 3 (bvadd (_ bv63 6) (sc_s 3))))))
 (let (($x9730 (= (stack_s x_0 x_1 w_3 w_2 x_CALLER 4 (bvadd (_ bv63 6) (sc_s 4))) (stack_s x_0 x_1 w_3 w_2 x_CALLER 3 (bvadd (_ bv61 6) (sc_s 3))))))
 (let (($x247 (exc_halt_s 2)))
 (let (($x10819 (or $x247 (not (= ((_ extract 6 6) (bvadd (_ bv1 7) (concat (_ bv0 1) (sc_s 2)))) (_ bv0 1))))))
 (let (($x292 (exc_halt_s 3)))
 (let (($x3954 (forall ((w (_ BitVec 256)) )(let ((?x10981 (storage_s x_0 x_1 w_3 w_2 x_CALLER 2 w)))
 (let ((?x5481 (storage_s x_0 x_1 w_3 w_2 x_CALLER 3 w)))
 (= ?x5481 ?x10981))))
 ))
 (let (($x7837 (forall ((n (_ BitVec 6)) )(let ((?x8931 (stack_s x_0 x_1 w_3 w_2 x_CALLER 2 n)))
 (let ((?x1632 (stack_s x_0 x_1 w_3 w_2 x_CALLER 3 n)))
 (or (= ?x1632 ?x8931) (bvsle (sc_s 2) n)))))
 ))
 (let ((?x10976 (used_gas_s x_0 x_1 w_3 w_2 x_CALLER 3)))
 (let (($x8729 (= $x247 (or (exc_halt_s 1) (not (bvsle (_ bv0 6) (bvadd (_ bv61 6) (sc_s 1))))))))
 (let (($x7717 (forall ((w (_ BitVec 256)) )(let ((?x1710 (storage_s x_0 x_1 w_3 w_2 x_CALLER 1 w)))
 (let ((?x10981 (storage_s x_0 x_1 w_3 w_2 x_CALLER 2 w)))
 (= ?x10981 ?x1710))))
 ))
 (let (($x10274 (forall ((n (_ BitVec 6)) )(let ((?x6564 (stack_s x_0 x_1 w_3 w_2 x_CALLER 1 n)))
 (let ((?x8931 (stack_s x_0 x_1 w_3 w_2 x_CALLER 2 n)))
 (or (= ?x8931 ?x6564) (bvsle (bvadd (_ bv61 6) (sc_s 1)) n)))))
 ))
 (let ((?x7374 (used_gas_s x_0 x_1 w_3 w_2 x_CALLER 2)))
 (let (($x8766 (= (stack_s x_0 x_1 w_3 w_2 x_CALLER 2 (bvadd (_ bv62 6) (sc_s 2))) (stack_s x_0 x_1 w_3 w_2 x_CALLER 1 (bvadd (_ bv62 6) (sc_s 1))))))
 (let (($x382 (= (stack_s x_0 x_1 w_3 w_2 x_CALLER 2 (bvadd (_ bv61 6) (sc_s 2))) (stack_s x_0 x_1 w_3 w_2 x_CALLER 1 (bvadd (_ bv63 6) (sc_s 1))))))
 (let (($x4478 (= (stack_s x_0 x_1 w_3 w_2 x_CALLER 2 (bvadd (_ bv63 6) (sc_s 2))) (stack_s x_0 x_1 w_3 w_2 x_CALLER 1 (bvadd (_ bv61 6) (sc_s 1))))))
 (let (($x189 (exc_halt_s 1)))
 (let (($x6847 (= $x189 (or $x57 (not (= ((_ extract 6 6) (bvadd (_ bv1 7) (concat (_ bv0 1) ?x72))) (_ bv0 1)))))))
 (let (($x8805 (forall ((w (_ BitVec 256)) )(let ((?x10297 (storage_s x_0 x_1 w_3 w_2 x_CALLER 0 w)))
 (let ((?x1710 (storage_s x_0 x_1 w_3 w_2 x_CALLER 1 w)))
 (= ?x1710 ?x10297))))
 ))
 (let (($x1634 (forall ((n (_ BitVec 6)) )(let ((?x959 (stack_s x_0 x_1 w_3 w_2 x_CALLER 0 n)))
 (let ((?x6564 (stack_s x_0 x_1 w_3 w_2 x_CALLER 1 n)))
 (or (bvsle (sc_s 0) n) (= ?x6564 ?x959)))))
 ))
 (let (($x8818 (forall ((w (_ BitVec 256)) )(let ((?x10297 (storage_s x_0 x_1 w_3 w_2 x_CALLER 0 w)))
 (= ?x10297 (_ bv0 256))))
 ))
 (let (($x8252 (= ?x6852 0)))
 (let (($x3926 (= (stack_s x_0 x_1 w_3 w_2 x_CALLER 0 (_ bv1 6)) x_1)))
 (let (($x5959 (= (stack_s x_0 x_1 w_3 w_2 x_CALLER 0 (_ bv0 6)) x_0)))
 (let (($x11128 (= ?x72 (_ bv2 6))))
 (and $x11128 $x5959 $x3926 (not $x57) $x8252 $x8818 (= (stack_s x_0 x_1 w_3 w_2 x_CALLER 1 ?x72) w_3) (= (used_gas_s x_0 x_1 w_3 w_2 x_CALLER 1) (+ 3 ?x6852)) (= (sc_s 1) (bvadd (_ bv1 6) ?x72)) $x1634 $x8805 $x6847 $x4478 $x382 $x8766 (= ?x7374 (+ 3 (used_gas_s x_0 x_1 w_3 w_2 x_CALLER 1))) (= (sc_s 2) (sc_s 1)) $x10274 $x7717 $x8729 (= (stack_s x_0 x_1 w_3 w_2 x_CALLER 3 (sc_s 2)) x_CALLER) (= ?x10976 (+ 2 ?x7374)) (= (sc_s 3) (bvadd (_ bv1 6) (sc_s 2))) $x7837 $x3954 (= $x292 $x10819) $x9730 $x2703 $x9714 (= ?x6501 (+ 3 ?x10976)) (= (sc_s 4) (sc_s 3)) $x8708 $x5807 $x6316 (= (stack_s x_0 x_1 w_3 w_2 x_CALLER 5 (sc_s 4)) w_2) (= ?x8891 (+ 3 ?x6501)) (= (sc_s 5) (bvadd (_ bv1 6) (sc_s 4))) $x3845 $x7209 (= $x11317 $x6078) $x7379 $x8195 $x1512 $x9441 (= ?x926 (sc_s 5)) $x969 $x9758 $x2870 (= (stack_t x_0 x_1 w_3 w_2 x_CALLER 1 ?x63) w_2) (= (used_gas_t x_0 x_1 w_3 w_2 x_CALLER 1) (+ 3 ?x2280)) (= (sc_t 1) (bvadd (_ bv1 6) ?x63)) $x7100 $x10478 $x428 (= (stack_t x_0 x_1 w_3 w_2 x_CALLER 2 (sc_t 1)) x_CALLER) (= ?x3172 (+ 2 (used_gas_t x_0 x_1 w_3 w_2 x_CALLER 1))) (= (sc_t 2) (bvadd (_ bv1 6) (sc_t 1))) $x1165 $x608 (= $x2163 $x10124) $x1101 $x1734 $x5507 (= ?x11410 (+ 3 ?x3172)) (= (sc_t 3) (sc_t 2)) $x7554 $x2862 $x4975 (= (stack_t x_0 x_1 w_3 w_2 x_CALLER 4 (sc_t 3)) w_3) (= ?x586 (+ 3 ?x11410)) (= (sc_t 4) (bvadd (_ bv1 6) (sc_t 3))) $x922 $x856 (= $x7854 $x6372) $x7470 $x2373 $x7455 $x5202 $x4726 $x3422 (= ?x8961 (sc_t 4)) $x10483 $x7806 $x4492 $x73 $x7006 $x58 $x6848 $x4270 (not (and $x5889 $x7137 $x11108 $x8020))))))))))))))))))))))))))))))))))))))))))))))))))))))))))))))))))))))))))))))))))))))))))))))))
 )
(check-sat)
(get-proof)
